NAME (null)_copy
ROWS
 N  OBJ
 L  BAL...BW
 L  BHC...BW
 L  BLC...BW
 L  BLV...BW
 E  BN4...BW
 L  BP8...BW
 E  BTO...BW
 E  B3E.VOBW
 E  B3P.VOBW
 E  B3R.VOBW
 L  HMH.3EBW
 L  HML.3EBW
 L  HMM.3EBW
 L  HRH.3EBW
 L  HRL.3EBW
 L  HRM.3EBW
 L  HMH.3RBW
 L  HML.3RBW
 L  HMM.3RBW
 L  HRH.3RBW
 L  HRL.3RBW
 L  HRM.3RBW
 L  NOI.3EBW
 L  NOI.3PBW
 L  NOI.3RBW
 L  XPB.3ABW
 L  XCV.3EBW
 L  XPB.3EBW
 L  XRV.3EBW
 L  X12.3EBW
 L  XCV.3PBW
 L  XRV.3PBW
 L  X12.3PBW
 L  XCV.3RBW
 L  XPB.3RBW
 L  XRV.3RBW
 L  X12.3RBW
COLUMNS
    BAL.3EBW  BAL...BW  1
    BAL.3EBW  B3E.VOBW  1
    BAL.3EBW  XCV.3EBW  6
    BAL.3EBW  XRV.3EBW  4
    BAL.3EBW  X12.3EBW  50.3
    BAL.3EBW  HRL.3EBW  -98.70277
    BAL.3EBW  HML.3EBW  -94.63568
    BAL.3EBW  HRM.3EBW  -102.02191
    BAL.3EBW  HMM.3EBW  -98.08976
    BAL.3EBW  HRH.3EBW  -103.0581
    BAL.3EBW  HMH.3EBW  -99.18559
    BHC.3EBW  BHC...BW  1
    BHC.3EBW  B3E.VOBW  1
    BHC.3EBW  XCV.3EBW  -2
    BHC.3EBW  XRV.3EBW  0.5
    BHC.3EBW  X12.3EBW  -15.6
    BHC.3EBW  HRL.3EBW  -92.89535
    BHC.3EBW  HML.3EBW  -79.40534
    BHC.3EBW  HRM.3EBW  -94.57094
    BHC.3EBW  HMM.3EBW  -81.47009
    BHC.3EBW  HRH.3EBW  -95.02163
    BHC.3EBW  HMH.3EBW  -82.04308
    BLC.3EBW  BLC...BW  1
    BLC.3EBW  B3E.VOBW  1
    BLC.3EBW  XCV.3EBW  7
    BLC.3EBW  XRV.3EBW  4.5
    BLC.3EBW  X12.3EBW  57.9
    BLC.3EBW  HRL.3EBW  -95.38345
    BLC.3EBW  HML.3EBW  -80.37873
    BLC.3EBW  HRM.3EBW  -97.97965
    BLC.3EBW  HMM.3EBW  -83.22026
    BLC.3EBW  HRH.3EBW  -98.64634
    BLC.3EBW  HMH.3EBW  -83.9937
    BLV.3EBW  BLV...BW  1
    BLV.3EBW  B3E.VOBW  1
    BLV.3EBW  XCV.3EBW  14
    BLV.3EBW  XRV.3EBW  7.2
    BLV.3EBW  X12.3EBW  102.3
    BLV.3EBW  HRL.3EBW  -82.8797
    BLV.3EBW  HML.3EBW  -80.36789
    BLV.3EBW  HRM.3EBW  -87.33298
    BLV.3EBW  HMM.3EBW  -84.5191
    BLV.3EBW  HRH.3EBW  -88.46612
    BLV.3EBW  HMH.3EBW  -85.61385
    BN4.3EBW  BN4...BW  -1
    BN4.3EBW  B3E.VOBW  1
    BN4.3EBW  XCV.3EBW  80
    BN4.3EBW  XRV.3EBW  70
    BN4.3EBW  X12.3EBW  113
    BN4.3EBW  HRL.3EBW  -97.32996
    BN4.3EBW  HML.3EBW  -92.71594
    BN4.3EBW  HRM.3EBW  -100.65
    BN4.3EBW  HMM.3EBW  -96.86628
    BN4.3EBW  HRH.3EBW  -101.66321
    BN4.3EBW  HMH.3EBW  -98.06433
    BP8.3EBW  BP8...BW  1
    BP8.3EBW  B3E.VOBW  1
    BP8.3EBW  XCV.3EBW  4
    BP8.3EBW  XRV.3EBW  3.6
    BP8.3EBW  X12.3EBW  28.9
    BP8.3EBW  HRL.3EBW  -101.17309
    BP8.3EBW  HML.3EBW  -90.03844
    BP8.3EBW  HRM.3EBW  -102.21363
    BP8.3EBW  HMM.3EBW  -91.26611
    BP8.3EBW  HRH.3EBW  -102.51818
    BP8.3EBW  HMH.3EBW  -91.62642
    BTO.3EBW  BTO...BW  -1
    BTO.3EBW  B3E.VOBW  1
    BTO.3EBW  XCV.3EBW  -1
    BTO.3EBW  XRV.3EBW  1.2
    BTO.3EBW  X12.3EBW  5
    BTO.3EBW  HRL.3EBW  -105.47666
    BTO.3EBW  HML.3EBW  -89.10432
    BTO.3EBW  HRM.3EBW  -106.21918
    BTO.3EBW  HMM.3EBW  -90.14887
    BTO.3EBW  HRH.3EBW  -106.46719
    BTO.3EBW  HMH.3EBW  -90.49629
    BAL.3PBW  NOI.3PBW  -1.0320563040000002e+02
    BAL.3PBW  BAL...BW  1
    BAL.3PBW  B3P.VOBW  1
    BAL.3PBW  XCV.3PBW  6
    BAL.3PBW  XRV.3PBW  4
    BAL.3PBW  X12.3PBW  50.3
    BHC.3PBW  NOI.3PBW  -9.0165417900000008e+01
    BHC.3PBW  BHC...BW  1
    BHC.3PBW  B3P.VOBW  1
    BHC.3PBW  XCV.3PBW  -2
    BHC.3PBW  XRV.3PBW  0.5
    BHC.3PBW  X12.3PBW  -15.6
    BLC.3PBW  NOI.3PBW  -9.3195229500000011e+01
    BLC.3PBW  BLC...BW  1
    BLC.3PBW  B3P.VOBW  1
    BLC.3PBW  XCV.3PBW  7
    BLC.3PBW  XRV.3PBW  4.5
    BLC.3PBW  X12.3PBW  57.9
    BLV.3PBW  NOI.3PBW  -86.5351098
    BLV.3PBW  BLV...BW  1
    BLV.3PBW  B3P.VOBW  1
    BLV.3PBW  XCV.3PBW  14
    BLV.3PBW  XRV.3PBW  7.2
    BLV.3PBW  X12.3PBW  102.3
    BN4.3PBW  NOI.3PBW  -9.9627529799999991e+01
    BN4.3PBW  BN4...BW  -1
    BN4.3PBW  B3P.VOBW  1
    BN4.3PBW  XCV.3PBW  80
    BN4.3PBW  XRV.3PBW  70
    BN4.3PBW  X12.3PBW  113
    BP8.3PBW  NOI.3PBW  -1.0136202420000001e+02
    BP8.3PBW  BP8...BW  1
    BP8.3PBW  B3P.VOBW  1
    BP8.3PBW  XCV.3PBW  4
    BP8.3PBW  XRV.3PBW  3.6
    BP8.3PBW  X12.3PBW  28.9
    BTO.3PBW  NOI.3PBW  -1.0244318580000001e+02
    BTO.3PBW  BTO...BW  -1
    BTO.3PBW  B3P.VOBW  1
    BTO.3PBW  XCV.3PBW  -1
    BTO.3PBW  XRV.3PBW  1.2
    BTO.3PBW  X12.3PBW  5
    BAL.3RBW  BAL...BW  1
    BAL.3RBW  B3R.VOBW  1
    BAL.3RBW  XCV.3RBW  6
    BAL.3RBW  XRV.3RBW  4
    BAL.3RBW  X12.3RBW  50.3
    BAL.3RBW  HRL.3RBW  -99.19039
    BAL.3RBW  HML.3RBW  -95.17073
    BAL.3RBW  HRM.3RBW  -101.0885
    BAL.3RBW  HMM.3RBW  -97.11016
    BAL.3RBW  HRH.3RBW  -103.0581
    BAL.3RBW  HMH.3RBW  -99.18559
    BHC.3RBW  BHC...BW  1
    BHC.3RBW  B3R.VOBW  1
    BHC.3RBW  XCV.3RBW  -2
    BHC.3RBW  XRV.3RBW  0.5
    BHC.3RBW  X12.3RBW  -15.6
    BHC.3RBW  HRL.3RBW  -93.16124
    BHC.3RBW  HML.3RBW  -79.72867
    BHC.3RBW  HRM.3RBW  -94.14769
    BHC.3RBW  HMM.3RBW  -80.94047
    BHC.3RBW  HRH.3RBW  -95.02163
    BHC.3RBW  HMH.3RBW  -82.04308
    BLC.3RBW  BLC...BW  1
    BLC.3RBW  B3R.VOBW  1
    BLC.3RBW  XCV.3RBW  7
    BLC.3RBW  XRV.3RBW  4.5
    BLC.3RBW  X12.3RBW  57.9
    BLC.3RBW  HRL.3RBW  -95.80861
    BLC.3RBW  HML.3RBW  -80.82888
    BLC.3RBW  HRM.3RBW  -97.34183
    BLC.3RBW  HMM.3RBW  -82.49926
    BLC.3RBW  HRH.3RBW  -98.64634
    BLC.3RBW  HMH.3RBW  -83.9937
    BLV.3RBW  BLV...BW  1
    BLV.3RBW  B3R.VOBW  1
    BLV.3RBW  XCV.3RBW  14
    BLV.3RBW  XRV.3RBW  7.2
    BLV.3RBW  X12.3RBW  102.3
    BLV.3RBW  HRL.3RBW  -83.61375
    BLV.3RBW  HML.3RBW  -81.03825
    BLV.3RBW  HRM.3RBW  -86.24515
    BLV.3RBW  HMM.3RBW  -83.48458
    BLV.3RBW  HRH.3RBW  -88.46612
    BLV.3RBW  HMH.3RBW  -85.61385
    BN4.3RBW  BN4...BW  -1
    BN4.3RBW  B3R.VOBW  1
    BN4.3RBW  XCV.3RBW  80
    BN4.3RBW  XRV.3RBW  70
    BN4.3RBW  X12.3RBW  113
    BN4.3RBW  HRL.3RBW  -97.86876
    BN4.3RBW  HML.3RBW  -93.41749
    BN4.3RBW  HRM.3RBW  -99.77765
    BN4.3RBW  HMM.3RBW  -95.86635
    BN4.3RBW  HRH.3RBW  -101.66321
    BN4.3RBW  HMH.3RBW  -98.06433
    BP8.3RBW  BP8...BW  1
    BP8.3RBW  B3R.VOBW  1
    BP8.3RBW  XCV.3RBW  4
    BP8.3RBW  XRV.3RBW  3.6
    BP8.3RBW  X12.3RBW  28.9
    BP8.3RBW  HRL.3RBW  -101.32905
    BP8.3RBW  HML.3RBW  -90.22411
    BP8.3RBW  HRM.3RBW  -101.93754
    BP8.3RBW  HMM.3RBW  -90.94112
    BP8.3RBW  HRH.3RBW  -102.51818
    BP8.3RBW  HMH.3RBW  -91.62642
    BTO.3RBW  BTO...BW  -1
    BTO.3RBW  B3R.VOBW  1
    BTO.3RBW  XCV.3RBW  -1
    BTO.3RBW  XRV.3RBW  1.2
    BTO.3RBW  X12.3RBW  5
    BTO.3RBW  HRL.3RBW  -105.58392
    BTO.3RBW  HML.3RBW  -89.25587
    BTO.3RBW  HRM.3RBW  -106.0019
    BTO.3RBW  HMM.3RBW  -89.84584
    BTO.3RBW  HRH.3RBW  -106.46719
    BTO.3RBW  HMH.3RBW  -90.49629
    D3T...BW  OBJ       -16.5
    D3T...BW  HMH.3RBW  1.6067592000000002e+00
    D3T...BW  HRH.3RBW  1.5091056
    D3T...BW  HMM.3RBW  1.4824674
    D3T...BW  HRM.3RBW  1.4185584
    D3T...BW  HML.3RBW  1.1930598
    D3T...BW  HRL.3RBW  1.1662649999999999e+00
    D3T...BW  XPB.3RBW  -0.918
    D3T...BW  NOI.3RBW  5.3190000000000005e+01
    D3T...BW  X12.3RBW  -3.2940000000000005e+01
    D3T...BW  XRV.3RBW  -6.48
    D3T...BW  XCV.3RBW  -8.64
    D3T...BW  B3R.VOBW  -0.54
    D3T...BW  HMH.3EBW  6.1053989999999991e-01
    D3T...BW  HRH.3EBW  0.6268031
    D3T...BW  HMM.3EBW  0.5871833
    D3T...BW  HRM.3EBW  0.584176
    D3T...BW  HML.3EBW  0.3977843
    D3T...BW  HRL.3EBW  2.9248529999999995e-01
    D3T...BW  XPB.3EBW  -4.9299999999999994e-01
    D3T...BW  NOI.3EBW  3.1180799999999998e+01
    D3T...BW  X12.3EBW  -1.7689999999999998e+01
    D3T...BW  XRV.3EBW  -3.4799999999999995e+00
    D3T...BW  XCV.3EBW  -4.64
    D3T...BW  B3E.VOBW  -0.29
    D3T...BW  XPB.3ABW  -1.5
    D3T...BW  NOI.3PBW  16.5597
    D3T...BW  X12.3PBW  -1.0370000000000001e+01
    D3T...BW  XRV.3PBW  -2.04
    D3T...BW  XCV.3PBW  -2.72
    D3T...BW  B3P.VOBW  -0.17
    EN4...BW  OBJ       12
    EN4...BW  BN4...BW  1
    ETO...BW  OBJ       16
    ETO...BW  BTO...BW  1
    QPB73EBW  OBJ       0.08757
    QPB73EBW  XPB.3EBW  1
    QPB73EBW  HRL.3EBW  -2.52143
    QPB73EBW  HML.3EBW  -3.42918
    QPB73EBW  HRM.3EBW  -1.54954
    QPB73EBW  HMM.3EBW  -1.55751
    QPB73EBW  HRH.3EBW  -1.27141
    QPB73EBW  HMH.3EBW  -1.23842
    QPB73EBW  XPB.3ABW  1
    QPB73RBW  OBJ       0.08757
    QPB73RBW  XPB.3RBW  1
    QPB73RBW  HRL.3RBW  -4.31949
    QPB73RBW  HML.3RBW  -4.41873
    QPB73RBW  HRM.3RBW  -2.62696
    QPB73RBW  HMM.3RBW  -2.74531
    QPB73RBW  HRH.3RBW  -1.64391
    QPB73RBW  HMH.3RBW  -1.75028
    QPB73RBW  XPB.3ABW  1
    WMO73EBW  NOI.3EBW  -0.73
    WMO73EBW  HML.3EBW  1
    WMO73EBW  HMM.3EBW  1
    WMO73EBW  HMH.3EBW  1
    WRO73EBW  NOI.3EBW  -0.41
    WRO73EBW  HRL.3EBW  1
    WRO73EBW  HRM.3EBW  1
    WRO73EBW  HRH.3EBW  1
    WMO73RBW  NOI.3RBW  -0.81
    WMO73RBW  HML.3RBW  1
    WMO73RBW  HMM.3RBW  1
    WMO73RBW  HMH.3RBW  1
    WRO73RBW  NOI.3RBW  -0.31
    WRO73RBW  HRL.3RBW  1
    WRO73RBW  HRM.3RBW  1
    WRO73RBW  HRH.3RBW  1
RHS
    RHS1      BAL...BW  10
    RHS1      BHC...BW  20
    RHS1      BLC...BW  25
    RHS1      BLV...BW  12
    RHS1      BP8...BW  35
BOUNDS
 UP BND1      BAL.3EBW  10.011
 UP BND1      BHC.3EBW  10
 UP BND1      BLC.3EBW  25.026
 UP BND1      BLV.3EBW  12.013
 UP BND1      BN4.3EBW  9.9537999999999975e+00
 UP BND1      BP8.3EBW  35.036
 UP BND1      BTO.3EBW  5.006
 UP BND1      BAL.3PBW  10.011
 UP BND1      BHC.3PBW  20.021
 UP BND1      BLC.3PBW  25.026
 UP BND1      BLV.3PBW  12.013
 UP BND1      BN4.3PBW  5.8354
 UP BND1      BP8.3PBW  34.035
 UP BND1      BTO.3PBW  5.006
 UP BND1      BAL.3RBW  10.011
 UP BND1      BHC.3RBW  20.021
 UP BND1      BLC.3RBW  25.026
 UP BND1      BLV.3RBW  12.013
 UP BND1      BN4.3RBW  1.8533800000000003e+01
 UP BND1      BP8.3RBW  35.036
 UP BND1      BTO.3RBW  5.006
 UP BND1      D3T...BW  200
 UP BND1      EN4...BW  100
 UP BND1      ETO...BW  5
 UP BND1      QPB73EBW  9.8699599999999990e+01
 UP BND1      QPB73RBW  1.8378459999999998e+02
ENDATA
